NAME germination_srl_ilp
* Max problem is converted into Min one
ROWS
 N  OBJ
 L  constraint1_5130
 L  constraint1_2090
 L  constraint1_7292
 L  constraint1_7294
 L  constraint1_7293
 L  constraint1_7291
 L  constraint1_7295
 L  constraint1_1480
 L  constraint1_6370
 L  constraint1_5934
 L  constraint1_5935
 L  constraint1_5931
 L  constraint1_5932
 L  constraint1_5930
 L  constraint1_5850
 L  constraint1_2260
 L  constraint1_330
 L  constraint1_4674
 L  constraint1_4678
 L  constraint1_4672
 L  constraint1_4673
 L  constraint1_4670
 L  constraint1_4675
 L  constraint1_4671
 L  constraint1_4679
 L  constraint1_4677
 L  constraint1_4676
 L  constraint1_20
 L  constraint1_6200
 L  constraint2_6350
 L  constraint2_6351
 L  constraint2_6352
 L  constraint2_6353
 L  constraint2_5130
 L  constraint2_5131
 L  constraint2_5132
 L  constraint2_5133
 L  constraint2_2090
 L  constraint2_2091
 L  constraint2_2092
 L  constraint2_2093
 L  constraint2_7290
 L  constraint2_7291
 L  constraint2_7292
 L  constraint2_7293
 L  constraint2_1480
 L  constraint2_1481
 L  constraint2_1482
 L  constraint2_1483
 L  constraint2_3330
 L  constraint2_3331
 L  constraint2_3332
 L  constraint2_3333
 L  constraint2_2430
 L  constraint2_2431
 L  constraint2_2432
 L  constraint2_2433
 L  constraint2_5260
 L  constraint2_5261
 L  constraint2_5262
 L  constraint2_5263
 L  constraint2_6370
 L  constraint2_6371
 L  constraint2_6372
 L  constraint2_6373
 L  constraint2_3510
 L  constraint2_3511
 L  constraint2_3512
 L  constraint2_3513
 L  constraint2_5930
 L  constraint2_5931
 L  constraint2_5932
 L  constraint2_5933
 L  constraint2_4970
 L  constraint2_4971
 L  constraint2_4972
 L  constraint2_4973
 L  constraint2_5850
 L  constraint2_5851
 L  constraint2_5852
 L  constraint2_5853
 L  constraint2_5050
 L  constraint2_5051
 L  constraint2_5052
 L  constraint2_5053
 L  constraint2_2260
 L  constraint2_2261
 L  constraint2_2262
 L  constraint2_2263
 L  constraint2_330
 L  constraint2_331
 L  constraint2_332
 L  constraint2_333
 L  constraint2_4660
 L  constraint2_4661
 L  constraint2_4662
 L  constraint2_4663
 L  constraint2_7260
 L  constraint2_7261
 L  constraint2_7262
 L  constraint2_7263
 L  constraint2_2350
 L  constraint2_2351
 L  constraint2_2352
 L  constraint2_2353
 L  constraint2_5740
 L  constraint2_5741
 L  constraint2_5742
 L  constraint2_5743
 L  constraint2_4670
 L  constraint2_4671
 L  constraint2_4672
 L  constraint2_4673
 L  constraint2_20
 L  constraint2_21
 L  constraint2_22
 L  constraint2_23
 L  constraint2_6200
 L  constraint2_6201
 L  constraint2_6202
 L  constraint2_6203
 L  constraint2_2800
 L  constraint2_2801
 L  constraint2_2802
 L  constraint2_2803
 L  constraint2_2160
 L  constraint2_2161
 L  constraint2_2162
 L  constraint2_2163
 L  constraint2_6140
 L  constraint2_6141
 L  constraint2_6142
 L  constraint2_6143
COLUMNS
    MARKER    'MARKER'                 'INTORG'
    Z_513_0_0  OBJ       -6.0958646589747405e-03
    Z_513_0_0  constraint1_5130  1
    Z_513_0_0  constraint2_5130  1
    Z_513_0_1  OBJ       -3.5658233108162124e-01
    Z_513_0_1  constraint1_5130  1
    Z_513_0_1  constraint2_5131  1
    Z_513_0_2  OBJ       -2.8937224996181869e-04
    Z_513_0_2  constraint1_5130  1
    Z_513_0_2  constraint2_5132  1
    Z_513_0_3  OBJ       -2.2678279472192184e-02
    Z_513_0_3  constraint1_5130  1
    Z_513_0_3  constraint2_5133  1
    Z_513_0_4  OBJ       -5.1435415253725025e-01
    Z_513_0_4  constraint1_5130  1
    Z_209_0_0  OBJ       -2.2524907973705509e-02
    Z_209_0_0  constraint1_2090  1
    Z_209_0_0  constraint2_2090  1
    Z_209_0_1  OBJ       -5.0550354585227275e-01
    Z_209_0_1  constraint1_2090  1
    Z_209_0_1  constraint2_2091  1
    Z_209_0_2  OBJ       -1.0109761781956700e-01
    Z_209_0_2  constraint1_2090  1
    Z_209_0_2  constraint2_2092  1
    Z_209_0_3  OBJ       -8.0646371805539574e-02
    Z_209_0_3  constraint1_2090  1
    Z_209_0_3  constraint2_2093  1
    Z_209_0_4  OBJ       -1.9022755654891513e-01
    Z_209_0_4  constraint1_2090  1
    Z_729_2_0  OBJ       -2.6980040206534021e-03
    Z_729_2_0  constraint1_7292  1
    Z_729_2_0  constraint2_7290  1
    Z_729_2_1  OBJ       -2.8106590848756786e-03
    Z_729_2_1  constraint1_7292  1
    Z_729_2_1  constraint2_7291  1
    Z_729_2_2  OBJ       -2.1737760437215314e-01
    Z_729_2_2  constraint1_7292  1
    Z_729_2_2  constraint2_7292  1
    Z_729_2_3  OBJ       -5.9822557434266767e-03
    Z_729_2_3  constraint1_7292  1
    Z_729_2_3  constraint2_7293  1
    Z_729_2_4  OBJ       -6.7113147677889107e-01
    Z_729_2_4  constraint1_7292  1
    Z_729_4_0  OBJ       -1.2344997923641524e-03
    Z_729_4_0  constraint1_7294  1
    Z_729_4_0  constraint2_7290  1
    Z_729_4_1  OBJ       -8.9089856664518238e-03
    Z_729_4_1  constraint1_7294  1
    Z_729_4_1  constraint2_7291  1
    Z_729_4_2  OBJ       -7.6637670546037678e-02
    Z_729_4_2  constraint1_7294  1
    Z_729_4_2  constraint2_7292  1
    Z_729_4_3  OBJ       -2.6802944602114091e-03
    Z_729_4_3  constraint1_7294  1
    Z_729_4_3  constraint2_7293  1
    Z_729_4_4  OBJ       -8.1053854953493487e-01
    Z_729_4_4  constraint1_7294  1
    Z_729_3_0  OBJ       -1.1874083842295640e-02
    Z_729_3_0  constraint1_7293  1
    Z_729_3_0  constraint2_7290  1
    Z_729_3_1  OBJ       -1.0352914059247141e-02
    Z_729_3_1  constraint1_7293  1
    Z_729_3_1  constraint2_7291  1
    Z_729_3_2  OBJ       -9.0169497134100860e-03
    Z_729_3_2  constraint1_7293  1
    Z_729_3_2  constraint2_7292  1
    Z_729_3_3  OBJ       -2.3801277861870529e-02
    Z_729_3_3  constraint1_7293  1
    Z_729_3_3  constraint2_7293  1
    Z_729_3_4  OBJ       -8.4495477452317658e-01
    Z_729_3_4  constraint1_7293  1
    Z_729_1_0  OBJ       -5.2179834801174092e-03
    Z_729_1_0  constraint1_7291  1
    Z_729_1_0  constraint2_7290  1
    Z_729_1_1  OBJ       -5.3886078105406842e-03
    Z_729_1_1  constraint1_7291  1
    Z_729_1_1  constraint2_7291  1
    Z_729_1_2  OBJ       -1.1739174832734298e-02
    Z_729_1_2  constraint1_7291  1
    Z_729_1_2  constraint2_7292  1
    Z_729_1_3  OBJ       -7.1104784271900723e-03
    Z_729_1_3  constraint1_7291  1
    Z_729_1_3  constraint2_7293  1
    Z_729_1_4  OBJ       -8.7054375544941764e-01
    Z_729_1_4  constraint1_7291  1
    Z_729_5_0  OBJ       -1.2344997923641524e-03
    Z_729_5_0  constraint1_7295  1
    Z_729_5_0  constraint2_7290  1
    Z_729_5_1  OBJ       -8.9089856664518238e-03
    Z_729_5_1  constraint1_7295  1
    Z_729_5_1  constraint2_7291  1
    Z_729_5_2  OBJ       -7.6637670546037678e-02
    Z_729_5_2  constraint1_7295  1
    Z_729_5_2  constraint2_7292  1
    Z_729_5_3  OBJ       -2.6802944602114091e-03
    Z_729_5_3  constraint1_7295  1
    Z_729_5_3  constraint2_7293  1
    Z_729_5_4  OBJ       -8.1053854953493487e-01
    Z_729_5_4  constraint1_7295  1
    Z_148_0_0  OBJ       -6.6480838251542244e-03
    Z_148_0_0  constraint1_1480  1
    Z_148_0_0  constraint2_1480  1
    Z_148_0_1  OBJ       -6.2229016933881809e-01
    Z_148_0_1  constraint1_1480  1
    Z_148_0_1  constraint2_1481  1
    Z_148_0_2  OBJ       -4.1583190761764355e-03
    Z_148_0_2  constraint1_1480  1
    Z_148_0_2  constraint2_1482  1
    Z_148_0_3  OBJ       -1.1765044494797271e-02
    Z_148_0_3  constraint1_1480  1
    Z_148_0_3  constraint2_1483  1
    Z_148_0_4  OBJ       -2.5513838326505384e-01
    Z_148_0_4  constraint1_1480  1
    Z_637_0_0  OBJ       -2.4088818735060594e-02
    Z_637_0_0  constraint1_6370  1
    Z_637_0_0  constraint2_6370  1
    Z_637_0_1  OBJ       -7.9066581147019666e-01
    Z_637_0_1  constraint1_6370  1
    Z_637_0_1  constraint2_6371  1
    Z_637_0_2  OBJ       -4.5807907301745662e-03
    Z_637_0_2  constraint1_6370  1
    Z_637_0_2  constraint2_6372  1
    Z_637_0_3  OBJ       -1.0604558220937981e-03
    Z_637_0_3  constraint1_6370  1
    Z_637_0_3  constraint2_6373  1
    Z_637_0_4  OBJ       -7.9604123242474428e-02
    Z_637_0_4  constraint1_6370  1
    Z_593_4_0  OBJ       -1.9821894612180917e-02
    Z_593_4_0  constraint1_5934  1
    Z_593_4_0  constraint2_5930  1
    Z_593_4_1  OBJ       -4.1440707581988671e-03
    Z_593_4_1  constraint1_5934  1
    Z_593_4_1  constraint2_5931  1
    Z_593_4_2  OBJ       -1.4206094784086537e-01
    Z_593_4_2  constraint1_5934  1
    Z_593_4_2  constraint2_5932  1
    Z_593_4_3  OBJ       -1.0794544626654034e-02
    Z_593_4_3  constraint1_5934  1
    Z_593_4_3  constraint2_5933  1
    Z_593_4_4  OBJ       -7.2317854216210076e-01
    Z_593_4_4  constraint1_5934  1
    Z_593_5_0  OBJ       -5.7673290453930104e-01
    Z_593_5_0  constraint1_5935  1
    Z_593_5_0  constraint2_5930  1
    Z_593_5_1  OBJ       -7.2058644525140866e-02
    Z_593_5_1  constraint1_5935  1
    Z_593_5_1  constraint2_5931  1
    Z_593_5_2  OBJ       -2.8663867903445809e-03
    Z_593_5_2  constraint1_5935  1
    Z_593_5_2  constraint2_5932  1
    Z_593_5_3  OBJ       -5.1224433130099868e-02
    Z_593_5_3  constraint1_5935  1
    Z_593_5_3  constraint2_5933  1
    Z_593_5_4  OBJ       -1.9711763101511379e-01
    Z_593_5_4  constraint1_5935  1
    Z_593_1_0  OBJ       -2.7314623641849220e-04
    Z_593_1_0  constraint1_5931  1
    Z_593_1_0  constraint2_5930  1
    Z_593_1_1  OBJ       -3.1718996798093570e-04
    Z_593_1_1  constraint1_5931  1
    Z_593_1_1  constraint2_5931  1
    Z_593_1_2  OBJ       -5.2889376576351499e-01
    Z_593_1_2  constraint1_5931  1
    Z_593_1_2  constraint2_5932  1
    Z_593_1_3  OBJ       -1.2916475973626333e-03
    Z_593_1_3  constraint1_5931  1
    Z_593_1_3  constraint2_5933  1
    Z_593_1_4  OBJ       -3.6922425043472296e-01
    Z_593_1_4  constraint1_5931  1
    Z_593_2_0  OBJ       -5.7673290453930104e-01
    Z_593_2_0  constraint1_5932  1
    Z_593_2_0  constraint2_5930  1
    Z_593_2_1  OBJ       -7.2058644525140866e-02
    Z_593_2_1  constraint1_5932  1
    Z_593_2_1  constraint2_5931  1
    Z_593_2_2  OBJ       -2.8663867903445809e-03
    Z_593_2_2  constraint1_5932  1
    Z_593_2_2  constraint2_5932  1
    Z_593_2_3  OBJ       -5.1224433130099868e-02
    Z_593_2_3  constraint1_5932  1
    Z_593_2_3  constraint2_5933  1
    Z_593_2_4  OBJ       -1.9711763101511379e-01
    Z_593_2_4  constraint1_5932  1
    Z_593_0_0  OBJ       -2.7314623641849220e-04
    Z_593_0_0  constraint1_5930  1
    Z_593_0_0  constraint2_5930  1
    Z_593_0_1  OBJ       -3.1718996798093570e-04
    Z_593_0_1  constraint1_5930  1
    Z_593_0_1  constraint2_5931  1
    Z_593_0_2  OBJ       -5.2889376576351499e-01
    Z_593_0_2  constraint1_5930  1
    Z_593_0_2  constraint2_5932  1
    Z_593_0_3  OBJ       -1.2916475973626333e-03
    Z_593_0_3  constraint1_5930  1
    Z_593_0_3  constraint2_5933  1
    Z_593_0_4  OBJ       -3.6922425043472296e-01
    Z_593_0_4  constraint1_5930  1
    Z_585_0_0  OBJ       -2.2952736877856340e-03
    Z_585_0_0  constraint1_5850  1
    Z_585_0_0  constraint2_5850  1
    Z_585_0_1  OBJ       -2.4825162619187364e-03
    Z_585_0_1  constraint1_5850  1
    Z_585_0_1  constraint2_5851  1
    Z_585_0_2  OBJ       -7.1151163713131615e-01
    Z_585_0_2  constraint1_5850  1
    Z_585_0_2  constraint2_5852  1
    Z_585_0_3  OBJ       -4.4676372283937926e-03
    Z_585_0_3  constraint1_5850  1
    Z_585_0_3  constraint2_5853  1
    Z_585_0_4  OBJ       -1.7924293569058564e-01
    Z_585_0_4  constraint1_5850  1
    Z_226_0_0  OBJ       -2.2952736877856340e-03
    Z_226_0_0  constraint1_2260  1
    Z_226_0_0  constraint2_2260  1
    Z_226_0_1  OBJ       -2.4825162619187364e-03
    Z_226_0_1  constraint1_2260  1
    Z_226_0_1  constraint2_2261  1
    Z_226_0_2  OBJ       -7.1151163713131615e-01
    Z_226_0_2  constraint1_2260  1
    Z_226_0_2  constraint2_2262  1
    Z_226_0_3  OBJ       -4.4676372283937926e-03
    Z_226_0_3  constraint1_2260  1
    Z_226_0_3  constraint2_2263  1
    Z_226_0_4  OBJ       -1.7924293569058564e-01
    Z_226_0_4  constraint1_2260  1
    Z_33_0_0  OBJ       -5.0471451109152909e-02
    Z_33_0_0  constraint1_330  1
    Z_33_0_0  constraint2_330  1
    Z_33_0_1  OBJ       -6.3065596479955216e-02
    Z_33_0_1  constraint1_330  1
    Z_33_0_1  constraint2_331  1
    Z_33_0_2  OBJ       -9.1995454315175768e-03
    Z_33_0_2  constraint1_330  1
    Z_33_0_2  constraint2_332  1
    Z_33_0_3  OBJ       -9.7743175838157489e-02
    Z_33_0_3  constraint1_330  1
    Z_33_0_3  constraint2_333  1
    Z_33_0_4  OBJ       -6.7952023114121685e-01
    Z_33_0_4  constraint1_330  1
    Z_467_4_0  OBJ       -1.1440201630693420e-04
    Z_467_4_0  constraint1_4674  1
    Z_467_4_0  constraint2_4670  1
    Z_467_4_1  OBJ       -4.7462810140748782e-03
    Z_467_4_1  constraint1_4674  1
    Z_467_4_1  constraint2_4671  1
    Z_467_4_2  OBJ       -2.7423910845666047e-02
    Z_467_4_2  constraint1_4674  1
    Z_467_4_2  constraint2_4672  1
    Z_467_4_3  OBJ       -1.7779516089805581e-03
    Z_467_4_3  constraint1_4674  1
    Z_467_4_3  constraint2_4673  1
    Z_467_4_4  OBJ       -8.6593745451497151e-01
    Z_467_4_4  constraint1_4674  1
    Z_467_8_0  OBJ       -2.8418054785091830e-02
    Z_467_8_0  constraint1_4678  1
    Z_467_8_0  constraint2_4670  1
    Z_467_8_1  OBJ       -3.5728877922292479e-01
    Z_467_8_1  constraint1_4678  1
    Z_467_8_1  constraint2_4671  1
    Z_467_8_2  OBJ       -8.9819943206704504e-03
    Z_467_8_2  constraint1_4678  1
    Z_467_8_2  constraint2_4672  1
    Z_467_8_3  OBJ       -1.3093304799762155e-03
    Z_467_8_3  constraint1_4678  1
    Z_467_8_3  constraint2_4673  1
    Z_467_8_4  OBJ       -5.0400184119133662e-01
    Z_467_8_4  constraint1_4678  1
    Z_467_2_0  OBJ       -2.1446633621212938e-02
    Z_467_2_0  constraint1_4672  1
    Z_467_2_0  constraint2_4670  1
    Z_467_2_1  OBJ       -3.1350794936803345e-02
    Z_467_2_1  constraint1_4672  1
    Z_467_2_1  constraint2_4671  1
    Z_467_2_2  OBJ       -1.1028705096118937e-02
    Z_467_2_2  constraint1_4672  1
    Z_467_2_2  constraint2_4672  1
    Z_467_2_3  OBJ       -6.9479030089565144e-03
    Z_467_2_3  constraint1_4672  1
    Z_467_2_3  constraint2_4673  1
    Z_467_2_4  OBJ       -8.2922596333690834e-01
    Z_467_2_4  constraint1_4672  1
    Z_467_3_0  OBJ       -1.5530653854046141e-02
    Z_467_3_0  constraint1_4673  1
    Z_467_3_0  constraint2_4670  1
    Z_467_3_1  OBJ       -2.7710180812900647e-02
    Z_467_3_1  constraint1_4673  1
    Z_467_3_1  constraint2_4671  1
    Z_467_3_2  OBJ       -1.2474472676235283e-02
    Z_467_3_2  constraint1_4673  1
    Z_467_3_2  constraint2_4672  1
    Z_467_3_3  OBJ       -7.2219954859079815e-03
    Z_467_3_3  constraint1_4673  1
    Z_467_3_3  constraint2_4673  1
    Z_467_3_4  OBJ       -8.3706269717090986e-01
    Z_467_3_4  constraint1_4673  1
    Z_467_0_0  OBJ       -2.2970680007374265e-02
    Z_467_0_0  constraint1_4670  1
    Z_467_0_0  constraint2_4670  1
    Z_467_0_1  OBJ       -4.8698586466862359e-01
    Z_467_0_1  constraint1_4670  1
    Z_467_0_1  constraint2_4671  1
    Z_467_0_2  OBJ       -3.1545256689855822e-03
    Z_467_0_2  constraint1_4670  1
    Z_467_0_2  constraint2_4672  1
    Z_467_0_3  OBJ       -2.2721817359548233e-02
    Z_467_0_3  constraint1_4670  1
    Z_467_0_3  constraint2_4673  1
    Z_467_0_4  OBJ       -3.6416711229546839e-01
    Z_467_0_4  constraint1_4670  1
    Z_467_5_0  OBJ       -1.1440201630693420e-04
    Z_467_5_0  constraint1_4675  1
    Z_467_5_0  constraint2_4670  1
    Z_467_5_1  OBJ       -4.7462810140748782e-03
    Z_467_5_1  constraint1_4675  1
    Z_467_5_1  constraint2_4671  1
    Z_467_5_2  OBJ       -2.7423910845666047e-02
    Z_467_5_2  constraint1_4675  1
    Z_467_5_2  constraint2_4672  1
    Z_467_5_3  OBJ       -1.7779516089805581e-03
    Z_467_5_3  constraint1_4675  1
    Z_467_5_3  constraint2_4673  1
    Z_467_5_4  OBJ       -8.6593745451497151e-01
    Z_467_5_4  constraint1_4675  1
    Z_467_1_0  OBJ       -1.8342695049477816e-03
    Z_467_1_0  constraint1_4671  1
    Z_467_1_0  constraint2_4670  1
    Z_467_1_1  OBJ       -8.1510068295540423e-03
    Z_467_1_1  constraint1_4671  1
    Z_467_1_1  constraint2_4671  1
    Z_467_1_2  OBJ       -5.2201070533083177e-03
    Z_467_1_2  constraint1_4671  1
    Z_467_1_2  constraint2_4672  1
    Z_467_1_3  OBJ       -7.9279601663760704e-03
    Z_467_1_3  constraint1_4671  1
    Z_467_1_3  constraint2_4673  1
    Z_467_1_4  OBJ       -8.7686665644581374e-01
    Z_467_1_4  constraint1_4671  1
    Z_467_9_0  OBJ       -1.2624842489104943e-02
    Z_467_9_0  constraint1_4679  1
    Z_467_9_0  constraint2_4670  1
    Z_467_9_1  OBJ       -9.8914946284448663e-02
    Z_467_9_1  constraint1_4679  1
    Z_467_9_1  constraint2_4671  1
    Z_467_9_2  OBJ       -5.8590549361530048e-03
    Z_467_9_2  constraint1_4679  1
    Z_467_9_2  constraint2_4672  1
    Z_467_9_3  OBJ       -1.8057592637794634e-02
    Z_467_9_3  constraint1_4679  1
    Z_467_9_3  constraint2_4673  1
    Z_467_9_4  OBJ       -7.6454356365249887e-01
    Z_467_9_4  constraint1_4679  1
    Z_467_7_0  OBJ       -3.0945213040809980e-03
    Z_467_7_0  constraint1_4677  1
    Z_467_7_0  constraint2_4670  1
    Z_467_7_1  OBJ       -1.3506818299886375e-01
    Z_467_7_1  constraint1_4677  1
    Z_467_7_1  constraint2_4671  1
    Z_467_7_2  OBJ       -8.0303181088345662e-03
    Z_467_7_2  constraint1_4677  1
    Z_467_7_2  constraint2_4672  1
    Z_467_7_3  OBJ       -7.9789752028861710e-02
    Z_467_7_3  constraint1_4677  1
    Z_467_7_3  constraint2_4673  1
    Z_467_7_4  OBJ       -6.7401722555935906e-01
    Z_467_7_4  constraint1_4677  1
    Z_467_6_0  OBJ       -1.4067215431264605e-02
    Z_467_6_0  constraint1_4676  1
    Z_467_6_0  constraint2_4670  1
    Z_467_6_1  OBJ       -6.3568178732487060e-02
    Z_467_6_1  constraint1_4676  1
    Z_467_6_1  constraint2_4671  1
    Z_467_6_2  OBJ       -2.0870477120627156e-02
    Z_467_6_2  constraint1_4676  1
    Z_467_6_2  constraint2_4672  1
    Z_467_6_3  OBJ       -1.9884932157619674e-03
    Z_467_6_3  constraint1_4676  1
    Z_467_6_3  constraint2_4673  1
    Z_467_6_4  OBJ       -7.9950563549985931e-01
    Z_467_6_4  constraint1_4676  1
    Z_2_0_0   OBJ       -3.4039566004023941e-02
    Z_2_0_0   constraint1_20  1
    Z_2_0_0   constraint2_20  1
    Z_2_0_1   OBJ       -7.7510168807010327e-01
    Z_2_0_1   constraint1_20  1
    Z_2_0_1   constraint2_21  1
    Z_2_0_2   OBJ       -5.4230698711053614e-03
    Z_2_0_2   constraint1_20  1
    Z_2_0_2   constraint2_22  1
    Z_2_0_3   OBJ       -1.1614648276287822e-03
    Z_2_0_3   constraint1_20  1
    Z_2_0_3   constraint2_23  1
    Z_2_0_4   OBJ       -8.4274211227138768e-02
    Z_2_0_4   constraint1_20  1
    Z_620_0_0  OBJ       -1.0494692159211023e-02
    Z_620_0_0  constraint1_6200  1
    Z_620_0_0  constraint2_6200  1
    Z_620_0_1  OBJ       -2.9874422756792129e-01
    Z_620_0_1  constraint1_6200  1
    Z_620_0_1  constraint2_6201  1
    Z_620_0_2  OBJ       -9.4349348610954700e-03
    Z_620_0_2  constraint1_6200  1
    Z_620_0_2  constraint2_6202  1
    Z_620_0_3  OBJ       -1.1302123301169013e-01
    Z_620_0_3  constraint1_6200  1
    Z_620_0_3  constraint2_6203  1
    Z_620_0_4  OBJ       -4.6830491240008199e-01
    Z_620_0_4  constraint1_6200  1
    MARKER    'MARKER'                 'INTEND'
RHS
    RHS1      constraint1_5130  1
    RHS1      constraint1_2090  1
    RHS1      constraint1_7292  1
    RHS1      constraint1_7294  1
    RHS1      constraint1_7293  1
    RHS1      constraint1_7291  1
    RHS1      constraint1_7295  1
    RHS1      constraint1_1480  1
    RHS1      constraint1_6370  1
    RHS1      constraint1_5934  1
    RHS1      constraint1_5935  1
    RHS1      constraint1_5931  1
    RHS1      constraint1_5932  1
    RHS1      constraint1_5930  1
    RHS1      constraint1_5850  1
    RHS1      constraint1_2260  1
    RHS1      constraint1_330  1
    RHS1      constraint1_4674  1
    RHS1      constraint1_4678  1
    RHS1      constraint1_4672  1
    RHS1      constraint1_4673  1
    RHS1      constraint1_4670  1
    RHS1      constraint1_4675  1
    RHS1      constraint1_4671  1
    RHS1      constraint1_4679  1
    RHS1      constraint1_4677  1
    RHS1      constraint1_4676  1
    RHS1      constraint1_20  1
    RHS1      constraint1_6200  1
    RHS1      constraint2_6350  1
    RHS1      constraint2_6351  1
    RHS1      constraint2_6352  1
    RHS1      constraint2_6353  1
    RHS1      constraint2_5130  1
    RHS1      constraint2_5131  1
    RHS1      constraint2_5132  1
    RHS1      constraint2_5133  1
    RHS1      constraint2_2090  1
    RHS1      constraint2_2091  1
    RHS1      constraint2_2092  1
    RHS1      constraint2_2093  1
    RHS1      constraint2_7290  1
    RHS1      constraint2_7291  1
    RHS1      constraint2_7292  1
    RHS1      constraint2_7293  1
    RHS1      constraint2_1480  1
    RHS1      constraint2_1481  1
    RHS1      constraint2_1482  1
    RHS1      constraint2_1483  1
    RHS1      constraint2_3330  1
    RHS1      constraint2_3331  1
    RHS1      constraint2_3332  1
    RHS1      constraint2_3333  1
    RHS1      constraint2_2430  1
    RHS1      constraint2_2431  1
    RHS1      constraint2_2432  1
    RHS1      constraint2_2433  1
    RHS1      constraint2_5260  1
    RHS1      constraint2_5261  1
    RHS1      constraint2_5262  1
    RHS1      constraint2_5263  1
    RHS1      constraint2_6370  1
    RHS1      constraint2_6371  1
    RHS1      constraint2_6372  1
    RHS1      constraint2_6373  1
    RHS1      constraint2_3510  1
    RHS1      constraint2_3511  1
    RHS1      constraint2_3512  1
    RHS1      constraint2_3513  1
    RHS1      constraint2_5930  1
    RHS1      constraint2_5931  1
    RHS1      constraint2_5932  1
    RHS1      constraint2_5933  1
    RHS1      constraint2_4970  1
    RHS1      constraint2_4971  1
    RHS1      constraint2_4972  1
    RHS1      constraint2_4973  1
    RHS1      constraint2_5850  1
    RHS1      constraint2_5851  1
    RHS1      constraint2_5852  1
    RHS1      constraint2_5853  1
    RHS1      constraint2_5050  1
    RHS1      constraint2_5051  1
    RHS1      constraint2_5052  1
    RHS1      constraint2_5053  1
    RHS1      constraint2_2260  1
    RHS1      constraint2_2261  1
    RHS1      constraint2_2262  1
    RHS1      constraint2_2263  1
    RHS1      constraint2_330  1
    RHS1      constraint2_331  1
    RHS1      constraint2_332  1
    RHS1      constraint2_333  1
    RHS1      constraint2_4660  1
    RHS1      constraint2_4661  1
    RHS1      constraint2_4662  1
    RHS1      constraint2_4663  1
    RHS1      constraint2_7260  1
    RHS1      constraint2_7261  1
    RHS1      constraint2_7262  1
    RHS1      constraint2_7263  1
    RHS1      constraint2_2350  1
    RHS1      constraint2_2351  1
    RHS1      constraint2_2352  1
    RHS1      constraint2_2353  1
    RHS1      constraint2_5740  1
    RHS1      constraint2_5741  1
    RHS1      constraint2_5742  1
    RHS1      constraint2_5743  1
    RHS1      constraint2_4670  1
    RHS1      constraint2_4671  1
    RHS1      constraint2_4672  1
    RHS1      constraint2_4673  1
    RHS1      constraint2_20  1
    RHS1      constraint2_21  1
    RHS1      constraint2_22  1
    RHS1      constraint2_23  1
    RHS1      constraint2_6200  1
    RHS1      constraint2_6201  1
    RHS1      constraint2_6202  1
    RHS1      constraint2_6203  1
    RHS1      constraint2_2800  1
    RHS1      constraint2_2801  1
    RHS1      constraint2_2802  1
    RHS1      constraint2_2803  1
    RHS1      constraint2_2160  1
    RHS1      constraint2_2161  1
    RHS1      constraint2_2162  1
    RHS1      constraint2_2163  1
    RHS1      constraint2_6140  1
    RHS1      constraint2_6141  1
    RHS1      constraint2_6142  1
    RHS1      constraint2_6143  1
BOUNDS
 UP BND1      Z_513_0_0  1
 UP BND1      Z_513_0_1  1
 UP BND1      Z_513_0_2  1
 UP BND1      Z_513_0_3  1
 UP BND1      Z_513_0_4  1
 UP BND1      Z_209_0_0  1
 UP BND1      Z_209_0_1  1
 UP BND1      Z_209_0_2  1
 UP BND1      Z_209_0_3  1
 UP BND1      Z_209_0_4  1
 UP BND1      Z_729_2_0  1
 UP BND1      Z_729_2_1  1
 UP BND1      Z_729_2_2  1
 UP BND1      Z_729_2_3  1
 UP BND1      Z_729_2_4  1
 UP BND1      Z_729_4_0  1
 UP BND1      Z_729_4_1  1
 UP BND1      Z_729_4_2  1
 UP BND1      Z_729_4_3  1
 UP BND1      Z_729_4_4  1
 UP BND1      Z_729_3_0  1
 UP BND1      Z_729_3_1  1
 UP BND1      Z_729_3_2  1
 UP BND1      Z_729_3_3  1
 UP BND1      Z_729_3_4  1
 UP BND1      Z_729_1_0  1
 UP BND1      Z_729_1_1  1
 UP BND1      Z_729_1_2  1
 UP BND1      Z_729_1_3  1
 UP BND1      Z_729_1_4  1
 UP BND1      Z_729_5_0  1
 UP BND1      Z_729_5_1  1
 UP BND1      Z_729_5_2  1
 UP BND1      Z_729_5_3  1
 UP BND1      Z_729_5_4  1
 UP BND1      Z_148_0_0  1
 UP BND1      Z_148_0_1  1
 UP BND1      Z_148_0_2  1
 UP BND1      Z_148_0_3  1
 UP BND1      Z_148_0_4  1
 UP BND1      Z_637_0_0  1
 UP BND1      Z_637_0_1  1
 UP BND1      Z_637_0_2  1
 UP BND1      Z_637_0_3  1
 UP BND1      Z_637_0_4  1
 UP BND1      Z_593_4_0  1
 UP BND1      Z_593_4_1  1
 UP BND1      Z_593_4_2  1
 UP BND1      Z_593_4_3  1
 UP BND1      Z_593_4_4  1
 UP BND1      Z_593_5_0  1
 UP BND1      Z_593_5_1  1
 UP BND1      Z_593_5_2  1
 UP BND1      Z_593_5_3  1
 UP BND1      Z_593_5_4  1
 UP BND1      Z_593_1_0  1
 UP BND1      Z_593_1_1  1
 UP BND1      Z_593_1_2  1
 UP BND1      Z_593_1_3  1
 UP BND1      Z_593_1_4  1
 UP BND1      Z_593_2_0  1
 UP BND1      Z_593_2_1  1
 UP BND1      Z_593_2_2  1
 UP BND1      Z_593_2_3  1
 UP BND1      Z_593_2_4  1
 UP BND1      Z_593_0_0  1
 UP BND1      Z_593_0_1  1
 UP BND1      Z_593_0_2  1
 UP BND1      Z_593_0_3  1
 UP BND1      Z_593_0_4  1
 UP BND1      Z_585_0_0  1
 UP BND1      Z_585_0_1  1
 UP BND1      Z_585_0_2  1
 UP BND1      Z_585_0_3  1
 UP BND1      Z_585_0_4  1
 UP BND1      Z_226_0_0  1
 UP BND1      Z_226_0_1  1
 UP BND1      Z_226_0_2  1
 UP BND1      Z_226_0_3  1
 UP BND1      Z_226_0_4  1
 UP BND1      Z_33_0_0  1
 UP BND1      Z_33_0_1  1
 UP BND1      Z_33_0_2  1
 UP BND1      Z_33_0_3  1
 UP BND1      Z_33_0_4  1
 UP BND1      Z_467_4_0  1
 UP BND1      Z_467_4_1  1
 UP BND1      Z_467_4_2  1
 UP BND1      Z_467_4_3  1
 UP BND1      Z_467_4_4  1
 UP BND1      Z_467_8_0  1
 UP BND1      Z_467_8_1  1
 UP BND1      Z_467_8_2  1
 UP BND1      Z_467_8_3  1
 UP BND1      Z_467_8_4  1
 UP BND1      Z_467_2_0  1
 UP BND1      Z_467_2_1  1
 UP BND1      Z_467_2_2  1
 UP BND1      Z_467_2_3  1
 UP BND1      Z_467_2_4  1
 UP BND1      Z_467_3_0  1
 UP BND1      Z_467_3_1  1
 UP BND1      Z_467_3_2  1
 UP BND1      Z_467_3_3  1
 UP BND1      Z_467_3_4  1
 UP BND1      Z_467_0_0  1
 UP BND1      Z_467_0_1  1
 UP BND1      Z_467_0_2  1
 UP BND1      Z_467_0_3  1
 UP BND1      Z_467_0_4  1
 UP BND1      Z_467_5_0  1
 UP BND1      Z_467_5_1  1
 UP BND1      Z_467_5_2  1
 UP BND1      Z_467_5_3  1
 UP BND1      Z_467_5_4  1
 UP BND1      Z_467_1_0  1
 UP BND1      Z_467_1_1  1
 UP BND1      Z_467_1_2  1
 UP BND1      Z_467_1_3  1
 UP BND1      Z_467_1_4  1
 UP BND1      Z_467_9_0  1
 UP BND1      Z_467_9_1  1
 UP BND1      Z_467_9_2  1
 UP BND1      Z_467_9_3  1
 UP BND1      Z_467_9_4  1
 UP BND1      Z_467_7_0  1
 UP BND1      Z_467_7_1  1
 UP BND1      Z_467_7_2  1
 UP BND1      Z_467_7_3  1
 UP BND1      Z_467_7_4  1
 UP BND1      Z_467_6_0  1
 UP BND1      Z_467_6_1  1
 UP BND1      Z_467_6_2  1
 UP BND1      Z_467_6_3  1
 UP BND1      Z_467_6_4  1
 UP BND1      Z_2_0_0   1
 UP BND1      Z_2_0_1   1
 UP BND1      Z_2_0_2   1
 UP BND1      Z_2_0_3   1
 UP BND1      Z_2_0_4   1
 UP BND1      Z_620_0_0  1
 UP BND1      Z_620_0_1  1
 UP BND1      Z_620_0_2  1
 UP BND1      Z_620_0_3  1
 UP BND1      Z_620_0_4  1
ENDATA
